NAME: test1678
TYPE: TSP
DIMENSION: 11
EDGE_WEIGHT_TYPE: EUC_2D
NODE_COORD_SECTION
1 62.66656230735555 43.54785495735567
2 65.0603515673141 64.3370089461542
3 8.54843464912658 36.943724372593266
4 80.55780919103161 89.99483592095775
5 67.77251250413508 40.30660795836539
6 56.18742816995936 71.04095119008092
7 40.25287416073028 83.11680237403223
8 80.53232386728742 48.818687627044376
9 93.65619097868716 37.43743779577584
10 77.83790465602289 59.74147124595124
11 81.10956658383837 42.44698483975402
EOF
